(set-logic QF_UF)
(declare-fun car () Bool)
(declare-fun circuit () Bool)
(declare-fun clk () Bool)
(declare-fun prt () Bool)
(assert (not prt))
(assert (not (not car)))
(assert (not (not clk)))
(assert (or prt (not car) (not clk)))
(check-sat)
(exit)
